10
20
982018
0
0
51 49 59 39 63 56 54 74 72 37 57 38 38 48 50 48 28 56 56 49
1
0
55 45 55 43 61 54 54 74 69 38 51 39 39 51 53 46 30 57 59 47
2
0
52 44 55 43 64 58 55 75 69 39 50 37 40 48 53 47 30 57 57 48
3
0
47 46 57 39 60 54 52 76 71 36 51 36 37 49 50 44 26 60 58 46
4
0
49 50 59 43 62 58 52 74 69 39 52 39 38 50 54 46 27 52 57 49
5
0
46 49 62 42 61 55 53 70 76 39 54 38 39 46 50 44 31 54 57 50
6
0
50 48 61 42 60 54 52 74 69 39 48 39 37 50 50 43 25 57 54 50
7
0
48 50 56 43 61 54 56 72 72 40 51 39 39 53 54 44 28 57 55 48
8
0
50 48 60 46 58 56 54 69 69 39 50 36 41 51 52 45 27 52 59 47
9
0
47 48 59 42 60 59 54 79 68 41 50 43 39 49 53 45 28 56 56 48
